c 1 __SELECTED_FEATURE_executivefloor
c 2 __SELECTED_FEATURE_base
c 3 __SELECTED_FEATURE_empty
c 4 __SELECTED_FEATURE_twothirdsfull
c 5 __SELECTED_FEATURE_weight
c 6 __SELECTED_FEATURE_overloaded
p cnf 6 6
2 0
-5 2 0
-3 2 0
-1 2 0
-6 5 0
-4 5 0
